
List of user-set options:

                                    Name   Value                used
                           compl_inf_tol = 1                     yes
                         constr_viol_tol = 1                     yes
                            dual_inf_tol = 1000                  yes
                           linear_solver = ma97                  yes
                              ma86_small = 1e-30                  no
                                  ma86_u = 0.0001                 no
                              ma97_order = best                  yes
                              ma97_small = 1e-30                 yes
                            ma97_switch1 = at_start              yes
                            ma97_switch2 = od_hd_reuse           yes
                                  ma97_u = 1e-06                 yes
                               ma97_umax = 0.5                   yes
                                max_iter = 1000                  yes
                    max_refinement_steps = 20                    yes
                    min_refinement_steps = 5                     yes
                                 mu_init = 1e-06                 yes
           mu_superlinear_decrease_power = 1.25                  yes
                   nlp_scaling_min_value = 1e-08                 yes
                        option_file_name = Preset_Case_439_pf.opt  yes
                             output_file = ./tmp/Preset_Case_439_pf.output  yes
                      print_user_options = yes                   yes
        required_infeasibility_reduction = 1                      no
                                     tol = 1e-08                 yes
                   warm_start_bound_frac = 1e-20                 yes
                   warm_start_bound_push = 1e-20                 yes
                   warm_start_init_point = yes                   yes
              warm_start_mult_bound_push = 1e-20                 yes
                warm_start_mult_init_max = 1e+40                 yes
             warm_start_slack_bound_frac = 1e-20                 yes
             warm_start_slack_bound_push = 1e-20                 yes

******************************************************************************
This program contains Ipopt, a library for large-scale nonlinear optimization.
 Ipopt is released as open source code under the Eclipse Public License (EPL).
         For more information visit http://projects.coin-or.org/Ipopt
******************************************************************************

This is Ipopt version 3.12.10, running with linear solver ma97.

Number of nonzeros in equality constraint Jacobian...:   123442
Number of nonzeros in inequality constraint Jacobian.:      213
Number of nonzeros in Lagrangian Hessian.............:    49069

Total number of variables............................:    31591
                     variables with only lower bounds:    12912
                variables with lower and upper bounds:    15130
                     variables with only upper bounds:        0
Total number of equality constraints.................:    31483
Total number of inequality constraints...............:       25
        inequality constraints with only lower bounds:        4
   inequality constraints with lower and upper bounds:        0
        inequality constraints with only upper bounds:       21

iter    objective    inf_pr   inf_du lg(mu)  ||d||  lg(rg) alpha_du alpha_pr  ls
   0 -4.9105484e+00 4.03e-03 1.02e+00  -6.0 0.00e+00    -  0.00e+00 0.00e+00   0
   1 -4.9101381e+00 9.36e-03 1.02e+00  -6.0 3.79e+05    -  1.20e-04 5.10e-05h  6
   2 -4.9114172e+00 9.34e-03 5.72e+00  -6.0 5.75e+03    -  2.70e-02 1.93e-03h  1
   3 -4.9339369e+00 2.24e+01 1.49e+01  -6.0 2.93e+04    -  2.29e-02 3.39e-02f  1
   4 -4.9493124e+00 2.19e+01 6.46e+01  -6.0 5.62e+03    -  2.57e-01 2.50e-02h  1
   5 -5.2986878e+00 4.00e+01 3.47e+03  -6.0 5.28e+03    -  1.80e-01 5.88e-01h  1
   6 -5.2977063e+00 4.00e+01 3.38e+03  -6.0 8.38e+03    -  1.52e-01 2.85e-02h  3
   7 -5.3069049e+00 4.19e+01 3.16e+03  -6.0 7.29e+03    -  4.97e-02 6.64e-02h  1
   8 -5.3159680e+00 4.59e+01 2.90e+03  -6.0 7.48e+03    -  1.09e-01 8.44e-02h  1
   9 -5.2392483e+00 1.01e-01 1.91e+02  -6.0 4.61e+00  -4.0 8.46e-02 1.00e+00h  1
iter    objective    inf_pr   inf_du lg(mu)  ||d||  lg(rg) alpha_du alpha_pr  ls
  10 -5.2409441e+00 9.83e-04 8.18e+01  -6.0 5.47e+00  -4.5 4.57e-01 1.00e+00h  1
  11 -5.2680864e+00 5.73e+00 7.75e+01  -6.0 2.98e+03    -  6.39e-02 1.82e-01h  1
  12 -5.2935465e+00 6.01e-01 1.69e+02  -6.0 3.21e+01  -5.0 3.36e-01 1.00e+00h  1
  13 -5.2978149e+00 3.42e-01 6.95e+01  -6.0 1.19e+01  -5.4 6.09e-01 1.00e+00h  1
  14 -5.2980596e+00 2.11e-02 8.18e+00  -6.0 2.19e+01  -5.9 5.72e-01 1.00e+00h  1
  15 -5.3010105e+00 5.42e-02 9.48e+00  -6.0 4.61e+01  -6.4 4.68e-01 9.11e-01h  1
  16 -5.3064675e+00 3.97e-01 3.42e+00  -6.0 1.15e+02  -6.9 8.83e-01 1.00e+00f  1
  17 -5.3142995e+00 1.37e+00 5.75e+00  -6.0 3.72e+02  -7.3 6.24e-01 5.35e-01h  1
  18 -5.3149166e+00 3.31e-01 1.06e+01  -6.0 1.40e+02  -7.8 1.00e+00 1.00e+00h  1
  19 -5.3236686e+00 1.40e+00 5.13e+02  -6.0 7.30e+02  -7.4 2.87e-01 2.95e-01h  1
iter    objective    inf_pr   inf_du lg(mu)  ||d||  lg(rg) alpha_du alpha_pr  ls
  20 -5.3370955e+00 1.36e+00 6.75e+02  -6.0 2.18e+02  -7.9 1.00e+00 1.00e+00h  1
  21 -5.3430006e+00 1.05e+00 3.21e+04  -6.0 2.11e+02  -8.3 4.46e-01 3.27e-01h  1
  22 -5.3611073e+00 1.24e+00 2.76e+04  -6.0 2.19e+02  -8.8 1.00e+00 9.29e-01h  1
  23 -5.3703087e+00 1.07e+00 2.33e+04  -6.0 4.52e+02  -9.3 3.30e-01 3.27e-01h  1
  24 -5.3762202e+00 1.18e+00 9.50e+05  -6.0 1.21e+03  -9.8 4.36e-01 1.54e-01h  1
  25r-5.3762202e+00 1.18e+00 1.00e+03   0.1 0.00e+00 -10.3 0.00e+00 8.75e-08R  2
  26r-5.3886234e+00 1.17e+00 9.99e+02   0.1 3.37e+04    -  7.00e-06 1.55e-06f  1
  27 -5.3881879e+00 1.13e+00 1.76e+04  -6.0 5.26e+01    -  1.91e-06 3.35e-02h  1
  28 -5.3823163e+00 6.11e-01 9.46e+03  -6.0 5.21e+01    -  1.18e-01 4.62e-01h  1
  29 -5.3806634e+00 4.62e-01 7.16e+03  -6.0 3.10e+01    -  5.18e-01 2.43e-01h  1
iter    objective    inf_pr   inf_du lg(mu)  ||d||  lg(rg) alpha_du alpha_pr  ls
  30 -5.3763260e+00 7.38e-02 1.14e+03  -6.0 1.13e+01    -  6.68e-01 8.40e-01h  1
  31 -5.3760150e+00 4.03e-02 6.24e+02  -6.0 1.82e+00    -  9.51e-01 4.54e-01h  1
  32 -5.3767553e+00 4.56e-03 2.07e+01  -6.0 1.19e+01    -  9.45e-01 1.00e+00h  1
  33 -5.3884989e+00 6.95e-01 7.54e+00  -6.0 1.47e+02    -  9.32e-01 1.00e+00h  1
  34 -5.3914257e+00 6.51e-01 1.80e+01  -6.0 1.71e+02    -  3.18e-01 6.83e-01h  1
  35 -5.3874352e+00 1.77e-01 4.31e+03  -6.0 9.82e+01    -  9.41e-01 1.00e+00h  1
  36 -5.3882462e+00 9.86e-01 1.93e+02  -6.0 1.15e+03    -  7.95e-01 1.75e-01h  1
  37 -5.3882625e+00 1.05e+00 5.70e+02  -6.0 1.54e+04 -10.7 6.30e-02 3.63e-03h  6
  38 -5.3882836e+00 1.06e+00 2.14e+03  -6.0 4.62e+03 -10.3 2.96e-01 6.11e-03h  7
  39 -5.3882919e+00 7.73e-01 9.67e+03  -6.0 3.18e+03  -9.9 9.44e-01 3.13e-03H  1
iter    objective    inf_pr   inf_du lg(mu)  ||d||  lg(rg) alpha_du alpha_pr  ls
  40 -5.3883483e+00 1.05e+00 7.60e+03  -6.0 1.00e+04 -10.4 1.12e-01 1.12e-02h  5
  41 -5.3884419e+00 1.07e+00 4.57e+03  -6.0 1.83e+03  -9.9 1.00e+00 2.47e-02h  6
  42 -5.3894132e+00 7.62e+01 7.08e+03  -6.0 5.80e+03 -10.4 6.08e-02 3.15e-01h  1
  43 -5.3894207e+00 7.57e+01 4.60e+03  -6.0 2.64e+02  -8.2 1.18e-01 6.49e-03h  1
  44 -5.3895919e+00 7.35e+01 4.75e+03  -6.0 2.21e+03  -8.7 1.28e-02 2.97e-02h  1
  45 -5.3895989e+00 7.35e+01 4.28e+03  -6.0 3.81e+04    -  2.56e-02 9.59e-04h  1
  46 -5.3896783e+00 7.94e+01 4.07e+03  -6.0 6.85e+04    -  1.82e-02 8.36e-03h  1
  47 -5.3897110e+00 7.86e+01 4.10e+03  -6.0 9.18e+03    -  9.21e-03 1.53e-02h  1
  48 -5.3897206e+00 7.78e+01 2.99e+04  -6.0 9.36e+03    -  3.15e-03 1.51e-02h  1
  49 -5.3897219e+00 7.76e+01 2.76e+04  -6.0 1.75e+04    -  2.97e-02 1.97e-03h  1
iter    objective    inf_pr   inf_du lg(mu)  ||d||  lg(rg) alpha_du alpha_pr  ls
  50 -5.3897196e+00 7.69e+01 1.15e+06  -6.0 1.04e+04    -  1.07e-03 1.81e-02h  1
  51 -5.3896870e+00 7.63e+01 6.88e+06  -6.0 1.12e+04    -  1.30e-04 1.41e-02h  1
  52 -5.3896583e+00 7.59e+01 6.84e+06  -6.0 1.89e+04    -  3.68e-04 5.76e-03h  3
  53 -5.3896504e+00 7.58e+01 6.83e+06  -6.0 9.91e+03    -  2.89e-03 1.10e-03h  1
  54 -5.3896181e+00 7.55e+01 6.80e+06  -6.0 1.52e+04    -  1.57e-02 4.31e-03h  4
  55 -5.3896048e+00 7.54e+01 6.79e+06  -6.0 1.50e+04    -  1.09e-02 1.59e-03h  6
  56 -5.3895963e+00 7.53e+01 6.78e+06  -6.0 1.47e+04    -  1.89e-02 9.79e-04h  7
  57 -5.3895941e+00 7.53e+01 6.78e+06  -6.0 1.91e+03    -  1.62e-02 1.89e-04h  8
  58 -5.3895922e+00 7.53e+01 6.78e+06  -6.0 3.70e+04    -  3.81e-03 1.11e-05h  6
  59 -5.3879490e+00 6.93e+01 6.21e+06  -6.0 3.21e+03    -  3.16e-04 8.44e-02h  1
iter    objective    inf_pr   inf_du lg(mu)  ||d||  lg(rg) alpha_du alpha_pr  ls
  60 -5.3876640e+00 6.84e+01 6.12e+06  -6.0 1.10e+04    -  8.67e-04 1.42e-02h  1
  61 -5.3864323e+00 6.42e+01 5.72e+06  -6.0 7.01e+03    -  1.04e-01 6.49e-02h  1
  62 -5.3864303e+00 6.42e+01 5.72e+06  -6.0 2.67e+03    -  4.89e-02 1.90e-04h  1
  63 -5.3844564e+00 5.32e+01 4.69e+06  -6.0 1.78e+03    -  1.50e-01 1.80e-01h  1
  64 -5.3822502e+00 4.49e+01 3.92e+06  -6.0 1.07e+03  -9.1 7.53e-02 1.65e-01h  1
  65 -5.3793758e+00 2.90e+01 2.52e+06  -6.0 9.83e+02  -9.6 7.34e-02 3.56e-01h  1
  66 -5.3795081e+00 2.35e+01 1.97e+06  -6.0 1.02e+03  -8.3 3.77e-02 2.17e-01h  1
  67 -5.3797790e+00 2.47e+01 1.96e+06  -6.0 9.17e+04    -  3.05e-04 6.36e-03h  1
  68 -5.3798739e+00 2.45e+01 1.94e+06  -6.0 5.22e+03    -  2.31e-02 8.88e-03h  1
  69 -5.3801544e+00 2.41e+01 1.88e+06  -6.0 4.78e+03    -  8.05e-02 3.02e-02f  1
iter    objective    inf_pr   inf_du lg(mu)  ||d||  lg(rg) alpha_du alpha_pr  ls
  70 -5.3803735e+00 2.33e+01 1.77e+06  -6.0 3.75e+03    -  6.22e-02 6.12e-02h  1
  71 -5.3806223e+00 2.23e+01 1.64e+06  -6.0 4.08e+03    -  2.13e-01 7.10e-02h  1
  72 -5.3809517e+00 2.14e+01 1.50e+06  -6.0 3.88e+03    -  2.39e-01 8.44e-02h  1
  73 -5.3811041e+00 2.08e+01 1.37e+06  -6.0 7.78e+03    -  1.05e-01 8.85e-02h  2
  74 -5.3811680e+00 2.02e+01 1.28e+06  -6.0 9.74e+03    -  1.71e-01 6.25e-02h  2
  75 -5.3811771e+00 2.17e+01 1.23e+06  -6.0 1.30e+04    -  3.67e-02 4.04e-02h  2
  76 -5.3811659e+00 2.17e+01 1.22e+06  -6.0 1.56e+04    -  1.76e-01 6.91e-03h  4
  77 -5.3811423e+00 2.39e+01 1.19e+06  -6.0 1.59e+04    -  6.43e-02 2.62e-02h  2
  78 -5.3811371e+00 2.39e+01 1.19e+06  -6.0 1.77e+04    -  2.32e-02 2.26e-03h  5
  79 -5.3811324e+00 2.39e+01 1.19e+06  -6.0 9.28e+03    -  3.06e-02 1.14e-03h  7
iter    objective    inf_pr   inf_du lg(mu)  ||d||  lg(rg) alpha_du alpha_pr  ls
  80 -5.3811320e+00 2.39e+01 1.19e+06  -6.0 1.58e+04    -  9.20e-03 1.56e-04h  9
  81 -5.3811317e+00 2.39e+01 1.19e+06  -6.0 9.55e+03    -  1.44e-01 6.88e-05h 11
  82 -5.3811293e+00 2.38e+01 1.19e+06  -6.0 5.66e+00  -4.2 2.42e-03 1.03e-03h  7
  83 -5.3801742e+00 2.00e+01 9.96e+05  -6.0 1.18e+01  -4.7 2.65e-02 1.60e-01h  1
  84 -5.3799793e+00 1.94e+01 9.64e+05  -6.0 2.49e+01  -4.3 4.07e-03 3.20e-02h  1
  85 -5.3799216e+00 1.92e+01 9.55e+05  -6.0 3.40e+01  -3.9 2.46e-02 9.89e-03h  1
Error in an AMPL evaluation. Run with "halt_on_ampl_error yes" to see details.
Warning: Cutting back alpha due to evaluation error
  86 -5.3799326e+00 1.91e+01 9.51e+05  -6.0 5.53e+01  -4.3 2.49e-02 4.06e-03h  2
  87r-5.3799326e+00 1.91e+01 1.00e+03   1.1 0.00e+00  -3.0 0.00e+00 3.78e-07R  5
  88r-5.3809584e+00 1.91e+01 1.00e+03   1.1 2.51e+06    -  5.05e-10 9.29e-10f  1
  89 -5.3805332e+00 1.43e+01 4.39e+04  -6.0 1.05e+01    -  2.95e-02 2.51e-01h  1
iter    objective    inf_pr   inf_du lg(mu)  ||d||  lg(rg) alpha_du alpha_pr  ls
  90 -5.3804953e+00 1.40e+01 4.49e+04  -6.0 7.88e+00    -  1.10e-01 2.07e-02h  1
  91 -5.3804673e+00 1.40e+01 4.69e+04  -6.0 5.96e+01    -  1.03e-02 1.67e-03h  1
  92 -5.3796953e+00 1.34e+01 4.33e+04  -6.0 6.02e+01    -  1.34e-02 4.06e-02h  1
  93 -5.3793525e+00 1.34e+01 4.31e+04  -6.0 5.20e+01    -  1.93e-02 5.73e-03h  1
  94 -5.3800503e+00 1.33e+01 4.31e+04  -6.0 8.31e+02    -  7.45e-05 7.03e-04h  1
  95 -5.3812611e+00 1.32e+01 4.25e+04  -6.0 8.90e+01    -  1.28e-02 1.35e-02f  1
  96 -5.3817236e+00 1.04e+01 3.32e+04  -6.0 9.05e+00    -  5.63e-02 2.14e-01h  1
  97 -5.3810576e+00 7.87e+00 2.53e+04  -6.0 1.39e+01    -  4.02e-01 2.40e-01h  1
  98 -5.3810599e+00 7.87e+00 2.53e+04  -6.0 3.48e+00    -  6.78e-01 2.71e-04h  1
  99 -5.3776183e+00 9.72e-04 5.83e+02  -6.0 3.27e+00    -  7.08e-01 1.00e+00h  1
iter    objective    inf_pr   inf_du lg(mu)  ||d||  lg(rg) alpha_du alpha_pr  ls
 100 -5.3782678e+00 2.03e-04 2.36e+00  -6.0 7.02e-01    -  9.53e-01 1.00e+00h  1
 101 -5.3801032e+00 4.00e-03 6.49e-01  -6.0 6.25e+00    -  8.70e-01 1.00e+00h  1
 102 -5.3832222e+00 2.09e-03 1.87e+00  -6.0 1.37e+01    -  6.25e-01 1.00e+00h  1
 103 -5.3869256e+00 4.07e-03 2.16e+01  -6.0 2.27e+01    -  1.87e-01 1.00e+00h  1
 104 -5.3870747e+00 3.76e-03 8.13e+00  -6.0 2.93e+01    -  5.28e-01 1.40e-01h  1
 105 -5.3878665e+00 7.50e-02 1.04e+01  -6.0 6.92e+01    -  6.83e-02 1.00e+00f  1
 106 -5.3881484e+00 7.45e-02 4.37e+00  -6.0 9.26e+01    -  5.80e-01 5.49e-01h  1
 107 -5.3884266e+00 3.91e-01 1.44e+00  -6.0 1.89e+02    -  9.58e-01 8.17e-01f  1
 108 -5.3897351e+00 4.60e+01 3.31e+01  -6.0 2.27e+03    -  3.80e-02 7.51e-01f  1
 109 -5.3899209e+00 7.23e+00 5.83e+01  -6.0 6.45e+02    -  4.89e-01 1.00e+00h  1
iter    objective    inf_pr   inf_du lg(mu)  ||d||  lg(rg) alpha_du alpha_pr  ls
 110 -5.3898802e+00 4.62e+00 1.52e+01  -6.0 5.08e+02    -  5.35e-01 1.00e+00h  1
 111 -5.3898679e+00 1.10e+00 3.18e+00  -6.0 2.54e+02    -  8.29e-01 1.00e+00h  1
 112 -5.3898308e+00 2.31e-01 8.55e-02  -6.0 1.20e+02    -  9.99e-01 1.00e+00h  1
 113 -5.3898260e+00 1.11e-03 1.36e-03  -6.0 7.71e+00    -  1.00e+00 1.00e+00h  1
 114 -5.3898259e+00 4.10e-07 8.45e-07  -6.0 1.50e-01    -  1.00e+00 1.00e+00h  1
 115 -5.3900818e+00 5.19e+00 8.60e+01  -7.5 8.23e+02    -  3.93e-01 6.89e-01h  1
 116 -5.3900809e+00 4.11e+00 2.42e+01  -7.5 4.25e+02    -  4.64e-01 2.21e-01h  1
 117 -5.3900680e+00 1.64e+00 3.78e+01  -7.5 2.19e+02    -  5.15e-01 8.86e-01h  1
 118 -5.3900547e+00 8.06e-03 2.19e+01  -7.5 2.09e+01    -  5.23e-01 1.00e+00h  1
 119 -5.3900546e+00 7.78e-05 1.32e+00  -7.5 1.75e+01    -  1.00e+00 1.00e+00H  1
iter    objective    inf_pr   inf_du lg(mu)  ||d||  lg(rg) alpha_du alpha_pr  ls
 120 -5.3900546e+00 7.14e-04 5.55e-05  -7.5 2.78e+00    -  1.00e+00 1.00e+00h  1
 121 -5.3900546e+00 2.90e-08 1.83e-09  -7.5 1.75e-02    -  1.00e+00 1.00e+00h  1
 122 -5.3900564e+00 3.18e-02 4.11e-01  -9.0 2.58e+01    -  8.70e-01 8.25e-01h  1
 123 -5.3900566e+00 2.09e-03 1.20e+00  -9.0 5.69e+00    -  7.49e-01 1.00e+00h  1
 124 -5.3900566e+00 2.94e-10 3.64e-09  -9.0 2.67e-03    -  1.00e+00 1.00e+00h  1

Number of Iterations....: 124

                                   (scaled)                 (unscaled)
Objective...............:  -4.2109817165388268e+00   -5.3900565971696981e+00
Dual infeasibility......:   3.6359851298720070e-09    4.6540609662361693e-09
Constraint violation....:   2.9442942083967444e-10    2.9442942083967444e-10
Complementarity.........:   1.1763090138740212e-09    1.5056755377587472e-09
Overall NLP error.......:   3.6359851298720070e-09    4.6540609662361693e-09


Number of objective function evaluations             = 254
Number of objective gradient evaluations             = 125
Number of equality constraint evaluations            = 255
Number of inequality constraint evaluations          = 254
Number of equality constraint Jacobian evaluations   = 127
Number of inequality constraint Jacobian evaluations = 127
Number of Lagrangian Hessian evaluations             = 124
Total CPU secs in IPOPT (w/o function evaluations)   =    294.163
Total CPU secs in NLP function evaluations           =      8.716

EXIT: Optimal Solution Found.
